problems/csplib-prob056/sonet-models/noch/O2/lingeling/model_3_1-s3ring15-solution000001.eprime-solution
language ESSENCE' 1.0

letting network_ExplicitWithFlagsR5_Flags be [1, 1, 1, 1, 1, 2, 0; int(1..7)]
letting network_ExplicitWithFlagsR5_Values_ExplicitVarSizeWithMarker_Marker be [0, 3, 5, 5, 5, 5, 0; int(1..7)]
letting network_ExplicitWithFlagsR5_Values_ExplicitVarSizeWithMarker_Values be
        [[1, 1, 1, 1, 1; int(1..5)], [1, 9, 11, 1, 1; int(1..5)], [2, 3, 5, 7, 10; int(1..5)],
         [2, 7, 9, 12, 13; int(1..5)], [4, 5, 6, 11, 13; int(1..5)], [4, 8, 10, 12, 13; int(1..5)],
         [1, 1, 1, 1, 1; int(1..5)]; int(1..7)]
